networks/zoo_29_109/zoo_29_109-lower.sol
<?xml version = "1.0" encoding="UTF-8" standalone="yes"?>
<CPLEXSolution version="1.2">
 <header
   problemName="networks/zoo_29_109/zoo_29_109-lower.lp"
   solutionName="incumbent"
   solutionIndex="-1"
   objectiveValue="14"
   solutionTypeValue="3"
   solutionTypeString="primal"
   solutionStatusValue="101"
   solutionStatusString="integer optimal solution"
   solutionMethodString="mip"
   primalFeasible="1"
   dualFeasible="1"
   MIPNodes="0"
   MIPIterations="0"
   writeLevel="3"/>
 <quality
   epInt="1.0000000000000001e-05"
   epRHS="9.9999999999999995e-07"
   maxIntInfeas="0"
   maxPrimalInfeas="0"
   maxX="1"
   maxSlack="1"/>
 <variables>
  <variable name="Y(1,3)" index="2" value="1"/>
  <variable name="Y(2,4)" index="31" value="1"/>
  <variable name="Y(3,6)" index="61" value="1"/>
  <variable name="Y(4,9)" index="92" value="1"/>
  <variable name="Y(5,10)" index="121" value="1"/>
  <variable name="Y(6,11)" index="150" value="1"/>
  <variable name="Y(7,12)" index="179" value="1"/>
  <variable name="Y(8,13)" index="208" value="1"/>
  <variable name="Y(9,14)" index="237" value="1"/>
  <variable name="Y(26,1)" index="700" value="1"/>
  <variable name="Y(27,2)" index="729" value="1"/>
  <variable name="Y(31,7)" index="846" value="1"/>
  <variable name="Y(32,8)" index="875" value="1"/>
  <variable name="Y(101,5)" index="2804" value="1"/>
  <variable name="X(1,4,1)" index="3052" value="1"/>
  <variable name="X(1,14,3)" index="3163" value="1"/>
  <variable name="X(1,16,26)" index="3295" value="1"/>
  <variable name="X(2,3,28)" index="3406" value="1"/>
  <variable name="X(2,6,11)" index="3498" value="1"/>
  <variable name="X(2,17,27)" index="3623" value="1"/>
  <variable name="X(3,2,11)" index="3716" value="1"/>
  <variable name="X(3,4,10)" index="3824" value="1"/>
  <variable name="X(3,18,1)" index="3924" value="1"/>
  <variable name="X(4,1,16)" index="4048" value="1"/>
  <variable name="X(4,3,1)" index="4142" value="1"/>
  <variable name="X(4,19,2)" index="4252" value="1"/>
  <variable name="X(5,6,3)" index="4362" value="1"/>
  <variable name="X(5,14,26)" index="4494" value="1"/>
  <variable name="X(5,20,101)" index="4678" value="1"/>
  <variable name="X(6,2,27)" index="4713" value="1"/>
  <variable name="X(6,5,39)" index="4834" value="1"/>
  <variable name="X(6,9,4)" index="4908" value="1"/>
  <variable name="X(6,21,3)" index="5016" value="1"/>
  <variable name="X(7,8,50)" index="5172" value="1"/>
  <variable name="X(7,22,31)" index="5262" value="1"/>
  <variable name="X(8,7,31)" index="5371" value="1"/>
  <variable name="X(8,9,51)" index="5500" value="1"/>
  <variable name="X(8,12,15)" index="5573" value="1"/>
  <variable name="X(8,23,32)" index="5699" value="1"/>
  <variable name="X(9,6,51)" index="5827" value="1"/>
  <variable name="X(9,8,15)" index="5900" value="1"/>
  <variable name="X(9,10,5)" index="5999" value="1"/>
  <variable name="X(9,24,4)" index="6107" value="1"/>
  <variable name="X(10,9,70)" index="6282" value="1"/>
  <variable name="X(10,11,14)" index="6335" value="1"/>
  <variable name="X(10,25,5)" index="6435" value="1"/>
  <variable name="X(11,10,70)" index="6609" value="1"/>
  <variable name="X(11,12,71)" index="6719" value="1"/>
  <variable name="X(11,26,6)" index="6763" value="1"/>
  <variable name="X(12,8,79)" index="6945" value="1"/>
  <variable name="X(12,11,6)" index="6981" value="1"/>
  <variable name="X(12,13,50)" index="7134" value="1"/>
  <variable name="X(12,27,7)" index="7200" value="1"/>
  <variable name="X(13,12,6)" index="7308" value="1"/>
  <variable name="X(13,14,50)" index="7461" value="1"/>
  <variable name="X(13,28,8)" index="7528" value="1"/>
  <variable name="X(14,1,26)" index="7655" value="1"/>
  <variable name="X(14,5,3)" index="7741" value="1"/>
  <variable name="X(14,13,6)" index="7853" value="1"/>
  <variable name="X(14,29,9)" index="7965" value="1"/>
 </variables>
</CPLEXSolution>
